ITEM = 1..15;
capacity1 = 172;
capacity2 = 172;
capacity3 = 172;
profits = [83, 34, 23, 20, 88, 55, 24, 25, 39, 54, 77, 26, 22, 56, 58];
weights = [90, 63, 82, 26, 88, 93, 46, 49, 87, 95, 97, 36, 65, 58, 58];
